3 8 9 4 0 9 0 -1 1 -1 
4 4 6 5 10 -1 5 5 10 -1 
-1 -1 3 0 5 4 8 2 6 -1 
4 9 4 -1 5 9 0 1 6 -1 
3 1 9 10 9 7 8 9 5 -1 
5 0 9 4 4 8 -1 3 -1 -1 
1 6 -1 7 4 5 0 9 0 -1 
-1 9 6 1 0 7 10 7 4 -1 
2 7 3 7 9 1 2 7 0 -1 
0 2 10 3 6 4 5 -1 4 -1 
